<?xml version = "1.0" standalone="yes"?>
<!-- This file has been generated by DOcplex version 2.23.222  -->
<CPLEXSolution version="1.0">
 <header
   problemName="CVRP"
   objectiveValue="12283.1"
  />
 <variables>
  <variable name="x_0_1" index="0" value="1.00000"/>
  <variable name="x_0_4" index="3" value="1.00000"/>
  <variable name="x_0_5" index="4" value="1.00000"/>
  <variable name="x_0_7" index="6" value="1.00000"/>
  <variable name="x_0_9" index="8" value="1.00000"/>
  <variable name="x_0_10" index="9" value="1.00000"/>
  <variable name="x_0_11" index="10" value="1.00000"/>
  <variable name="x_0_13" index="12" value="1.00000"/>
  <variable name="x_0_14" index="13" value="1.00000"/>
  <variable name="x_0_17" index="16" value="1.00000"/>
  <variable name="x_0_18" index="17" value="1.00000"/>
  <variable name="x_0_20" index="19" value="1.00000"/>
  <variable name="x_1_0" index="22" value="1.00000"/>
  <variable name="x_2_0" index="44" value="1.00000"/>
  <variable name="x_3_0" index="66" value="1.00000"/>
  <variable name="x_4_2" index="90" value="1.00000"/>
  <variable name="x_5_19" index="128" value="1.00000"/>
  <variable name="x_6_16" index="147" value="1.00000"/>
  <variable name="x_7_3" index="157" value="1.00000"/>
  <variable name="x_8_0" index="176" value="1.00000"/>
  <variable name="x_9_12" index="209" value="1.00000"/>
  <variable name="x_10_22" index="241" value="1.00000"/>
  <variable name="x_11_0" index="242" value="1.00000"/>
  <variable name="x_12_0" index="264" value="1.00000"/>
  <variable name="x_13_0" index="286" value="1.00000"/>
  <variable name="x_14_15" index="322" value="1.00000"/>
  <variable name="x_15_0" index="330" value="1.00000"/>
  <variable name="x_16_0" index="352" value="1.00000"/>
  <variable name="x_17_0" index="374" value="1.00000"/>
  <variable name="x_18_8" index="404" value="1.00000"/>
  <variable name="x_19_21" index="438" value="1.00000"/>
  <variable name="x_20_6" index="446" value="1.00000"/>
  <variable name="x_21_0" index="462" value="1.00000"/>
  <variable name="x_22_0" index="484" value="1.00000"/>
  <variable name="u_1" index="506" value="29.00000"/>
  <variable name="u_2" index="507" value="24.00000"/>
  <variable name="u_3" index="508" value="32.00000"/>
  <variable name="u_4" index="509" value="5.00000"/>
  <variable name="u_5" index="510" value="7.00000"/>
  <variable name="u_6" index="511" value="29.00000"/>
  <variable name="u_7" index="512" value="2.00000"/>
  <variable name="u_8" index="513" value="32.00000"/>
  <variable name="u_9" index="514" value="22.00000"/>
  <variable name="u_10" index="515" value="18.00000"/>
  <variable name="u_11" index="516" value="32.00000"/>
  <variable name="u_12" index="517" value="30.00000"/>
  <variable name="u_13" index="518" value="22.00000"/>
  <variable name="u_14" index="519" value="29.00000"/>
  <variable name="u_15" index="520" value="32.00000"/>
  <variable name="u_16" index="521" value="32.00000"/>
  <variable name="u_17" index="522" value="32.00000"/>
  <variable name="u_18" index="523" value="4.00000"/>
  <variable name="u_19" index="524" value="29.00000"/>
  <variable name="u_20" index="525" value="16.00000"/>
  <variable name="u_21" index="526" value="32.00000"/>
  <variable name="u_22" index="527" value="32.00000"/>
 </variables>
</CPLEXSolution>
